NAME          
ROWS
 N  OBJ
 L  c1
 L  c2
 L  c3
 L  c4
 L  c5
COLUMNS
    MARKER    'MARKER'                 'INTORG'
    x[1]      c1        705
    x[1]      c2        609
    x[1]      c3        845
    x[1]      c4        904
    x[1]      c5        410
    x[1]      OBJ       -191
    x[2]      c1        138
    x[2]      c2        417
    x[2]      c3        487
    x[2]      c4        909
    x[2]      c5        229
    x[2]      OBJ       -717
    x[3]      c1        690
    x[3]      c2        207
    x[3]      c3        511
    x[3]      c4        118
    x[3]      c5        915
    x[3]      OBJ       -793
    x[4]      c1        841
    x[4]      c2        556
    x[4]      c3        597
    x[4]      c4        748
    x[4]      c5        256
    x[4]      OBJ       -49
    x[5]      c1        819
    x[5]      c2        513
    x[5]      c3        594
    x[5]      c4        877
    x[5]      c5        651
    x[5]      OBJ       -854
    x[6]      c1        997
    x[6]      c2        124
    x[6]      c3        107
    x[6]      c4        258
    x[6]      c5        15
    x[6]      OBJ       -119
    x[7]      c1        228
    x[7]      c2        632
    x[7]      c3        371
    x[7]      c4        80
    x[7]      c5        686
    x[7]      OBJ       -556
    x[8]      c1        443
    x[8]      c2        472
    x[8]      c3        424
    x[8]      c4        846
    x[8]      c5        346
    x[8]      OBJ       -289
    x[9]      c1        688
    x[9]      c2        387
    x[9]      c3        674
    x[9]      c4        493
    x[9]      c5        763
    x[9]      OBJ       -281
    x[10]     c1        930
    x[10]     c2        423
    x[10]     c3        639
    x[10]     c4        19
    x[10]     c5        645
    x[10]     OBJ       -669
    x[11]     c1        969
    x[11]     c2        391
    x[11]     c3        936
    x[11]     c4        50
    x[11]     c5        780
    x[11]     OBJ       -236
    x[12]     c1        449
    x[12]     c2        170
    x[12]     c3        877
    x[12]     c4        658
    x[12]     c5        665
    x[12]     OBJ       -299
    x[13]     c1        250
    x[13]     c2        770
    x[13]     c3        963
    x[13]     c4        690
    x[13]     c5        11
    x[13]     OBJ       -175
    x[14]     c1        907
    x[14]     c2        929
    x[14]     c3        737
    x[14]     c4        937
    x[14]     c5        843
    x[14]     OBJ       -398
    x[15]     c1        648
    x[15]     c2        18
    x[15]     c3        322
    x[15]     c4        696
    x[15]     c5        944
    x[15]     OBJ       -376
    x[16]     c1        125
    x[16]     c2        805
    x[16]     c3        858
    x[16]     c4        156
    x[16]     c5        424
    x[16]     OBJ       -972
    x[17]     c1        977
    x[17]     c2        313
    x[17]     c3        110
    x[17]     c4        256
    x[17]     c5        482
    x[17]     OBJ       -119
    x[18]     c1        720
    x[18]     c2        473
    x[18]     c3        624
    x[18]     c4        104
    x[18]     c5        827
    x[18]     OBJ       -753
    x[19]     c1        462
    x[19]     c2        696
    x[19]     c3        898
    x[19]     c4        546
    x[19]     c5        629
    x[19]     OBJ       -452
    x[20]     c1        606
    x[20]     c2        191
    x[20]     c3        115
    x[20]     c4        611
    x[20]     c5        478
    x[20]     OBJ       -353
    x[21]     c1        141
    x[21]     c2        815
    x[21]     c3        651
    x[21]     c4        309
    x[21]     c5        892
    x[21]     OBJ       -502
    x[22]     c1        79
    x[22]     c2        282
    x[22]     c3        582
    x[22]     c4        129
    x[22]     c5        257
    x[22]     OBJ       -298
    x[23]     c1        914
    x[23]     c2        409
    x[23]     c3        693
    x[23]     c4        104
    x[23]     c5        812
    x[23]     OBJ       -389
    x[24]     c1        561
    x[24]     c2        806
    x[24]     c3        495
    x[24]     c4        732
    x[24]     c5        293
    x[24]     OBJ       -476
    x[25]     c1        132
    x[25]     c2        344
    x[25]     c3        782
    x[25]     c4        709
    x[25]     c5        943
    x[25]     OBJ       -951
    x[26]     c1        382
    x[26]     c2        361
    x[26]     c3        122
    x[26]     c4        75
    x[26]     c5        286
    x[26]     OBJ       -853
    x[27]     c1        523
    x[27]     c2        729
    x[27]     c3        872
    x[27]     c4        541
    x[27]     c5        682
    x[27]     OBJ       -558
    x[28]     c1        355
    x[28]     c2        105
    x[28]     c3        613
    x[28]     c4        122
    x[28]     c5        723
    x[28]     OBJ       -255
    x[29]     c1        551
    x[29]     c2        769
    x[29]     c3        21
    x[29]     c4        315
    x[29]     c5        341
    x[29]     OBJ       -73
    x[30]     c1        952
    x[30]     c2        698
    x[30]     c3        67
    x[30]     c4        645
    x[30]     c5        186
    x[30]     OBJ       -382
    x[31]     c1        409
    x[31]     c2        816
    x[31]     c3        352
    x[31]     c4        220
    x[31]     c5        691
    x[31]     OBJ       -244
    x[32]     c1        949
    x[32]     c2        540
    x[32]     c3        610
    x[32]     c4        718
    x[32]     c5        882
    x[32]     OBJ       -271
    x[33]     c1        501
    x[33]     c2        598
    x[33]     c3        218
    x[33]     c4        777
    x[33]     c5        933
    x[33]     OBJ       -579
    x[34]     c1        440
    x[34]     c2        495
    x[34]     c3        980
    x[34]     c4        627
    x[34]     c5        74
    x[34]     OBJ       -137
    x[35]     c1        106
    x[35]     c2        764
    x[35]     c3        442
    x[35]     c4        528
    x[35]     c5        757
    x[35]     OBJ       -120
    x[36]     c1        417
    x[36]     c2        442
    x[36]     c3        179
    x[36]     c4        52
    x[36]     c5        968
    x[36]     OBJ       -289
    x[37]     c1        28
    x[37]     c2        267
    x[37]     c3        98
    x[37]     c4        503
    x[37]     c5        473
    x[37]     OBJ       -828
    x[38]     c1        285
    x[38]     c2        240
    x[38]     c3        414
    x[38]     c4        237
    x[38]     c5        356
    x[38]     OBJ       -572
    x[39]     c1        5
    x[39]     c2        136
    x[39]     c3        421
    x[39]     c4        651
    x[39]     c5        942
    x[39]     OBJ       -777
    x[40]     c1        605
    x[40]     c2        267
    x[40]     c3        961
    x[40]     c4        880
    x[40]     c5        180
    x[40]     OBJ       -374
    x[41]     c1        414
    x[41]     c2        447
    x[41]     c3        971
    x[41]     c4        223
    x[41]     c5        898
    x[41]     OBJ       -617
    x[42]     c1        897
    x[42]     c2        788
    x[42]     c3        493
    x[42]     c4        442
    x[42]     c5        668
    x[42]     OBJ       -649
    x[43]     c1        473
    x[43]     c2        132
    x[43]     c3        967
    x[43]     c4        44
    x[43]     c5        672
    x[43]     OBJ       -15
    x[44]     c1        633
    x[44]     c2        936
    x[44]     c3        658
    x[44]     c4        895
    x[44]     c5        644
    x[44]     OBJ       -597
    x[45]     c1        59
    x[45]     c2        605
    x[45]     c3        353
    x[45]     c4        664
    x[45]     c5        873
    x[45]     OBJ       -386
    x[46]     c1        11
    x[46]     c2        520
    x[46]     c3        871
    x[46]     c4        368
    x[46]     c5        611
    x[46]     OBJ       -490
    x[47]     c1        744
    x[47]     c2        13
    x[47]     c3        455
    x[47]     c4        301
    x[47]     c5        964
    x[47]     OBJ       -318
    x[48]     c1        907
    x[48]     c2        629
    x[48]     c3        523
    x[48]     c4        611
    x[48]     c5        326
    x[48]     OBJ       -132
    x[49]     c1        365
    x[49]     c2        305
    x[49]     c3        249
    x[49]     c4        428
    x[49]     c5        159
    x[49]     OBJ       -95
    x[50]     c1        84
    x[50]     c2        479
    x[50]     c3        960
    x[50]     c4        19
    x[50]     c5        599
    x[50]     OBJ       -850
RHS
    rhs       c1        12757
    rhs       c2        11916
    rhs       c3        13881
    rhs       c4        11412
    rhs       c5        14542
RANGES
BOUNDS
 BV bounds    x[1]
 BV bounds    x[2]
 BV bounds    x[3]
 BV bounds    x[4]
 BV bounds    x[5]
 BV bounds    x[6]
 BV bounds    x[7]
 BV bounds    x[8]
 BV bounds    x[9]
 BV bounds    x[10]
 BV bounds    x[11]
 BV bounds    x[12]
 BV bounds    x[13]
 BV bounds    x[14]
 BV bounds    x[15]
 BV bounds    x[16]
 BV bounds    x[17]
 BV bounds    x[18]
 BV bounds    x[19]
 BV bounds    x[20]
 BV bounds    x[21]
 BV bounds    x[22]
 BV bounds    x[23]
 BV bounds    x[24]
 BV bounds    x[25]
 BV bounds    x[26]
 BV bounds    x[27]
 BV bounds    x[28]
 BV bounds    x[29]
 BV bounds    x[30]
 BV bounds    x[31]
 BV bounds    x[32]
 BV bounds    x[33]
 BV bounds    x[34]
 BV bounds    x[35]
 BV bounds    x[36]
 BV bounds    x[37]
 BV bounds    x[38]
 BV bounds    x[39]
 BV bounds    x[40]
 BV bounds    x[41]
 BV bounds    x[42]
 BV bounds    x[43]
 BV bounds    x[44]
 BV bounds    x[45]
 BV bounds    x[46]
 BV bounds    x[47]
 BV bounds    x[48]
 BV bounds    x[49]
 BV bounds    x[50]
ENDATA
